p ds 20 5
1 7
1 8
1 11
1 14
1 16
2 4
2 7
2 11
2 12
2 18
3 4
3 6
3 7
3 8
3 11
3 12
3 13
3 16
4 5
4 8
4 10
4 11
4 16
4 19
4 20
5 6
5 8
6 9
6 10
6 13
6 16
6 20
7 11
7 13
7 14
7 17
7 19
8 12
8 13
9 13
9 15
9 16
9 18
10 12
10 13
10 14
10 15
10 17
10 18
11 12
11 16
11 18
11 20
12 14
12 16
12 17
13 14
13 16
14 19
14 20
15 19
15 20
17 19
18 19
